%NProcShared=2
%Chk=checkpoint.chk
#n CCSD/6-31G SP formcheck Density=CC

Title

0 1
C          -2.33180         0.09486         0.00059
C          -1.64432         1.45566        -0.00790
H          -3.02990         0.01239        -0.85943
H          -2.89947        -0.03772         0.94530
H          -1.57094        -0.70970        -0.07820
N          -2.63138         2.52321         0.11102
H          -1.06644         1.57685        -0.95094
H          -0.94054         1.50903         0.85080
H          -3.25044         2.51392        -0.73197
H          -2.12945         3.43957         0.12946

