%NProcShared=2
%Chk=checkpoint.chk
#n CCSD/6-31G SP formcheck Density=CC

Title

0 1
C          -3.42187         1.27608        -0.00014
C          -2.05006         1.38507        -0.00016
C          -1.77344         2.73560        -0.00025
C          -3.90827         2.56599        -0.00021
O          -2.90119         3.41012        -0.00028
H          -4.00143         0.36268        -0.00007
H          -4.95057         2.85550        -0.00022
H          -1.33355         0.57464        -0.00012
H          -0.78993         3.18607        -0.00029

