%NProcShared=2
%Chk=checkpoint.chk
#n CCSD/6-31G SP formcheck Density=CC

Title

0 1
C  3.2726  6.3604  -1.1836
O  4.6708  6.3481  -1.1900
H  2.8817  5.4991  -0.5995
H  2.8817  6.3431  -2.2240
H  2.9238  7.2950  -0.6980
H  4.9342  5.4991  -1.6310
